04_frontend_stage/rtl-caravel_wrapper/formal/caravel_bridge_bmc/model/design_smt2.smt2
; SMT-LIBv2 description generated by Yosys 0.65+71 (git sha1 e56c6a954, clang++ 18.1.8 -fPIC -O3)
; yosys-smt2-module caravel_wrapper
(declare-sort |caravel_wrapper_s| 0)
(declare-fun |caravel_wrapper_is| (|caravel_wrapper_s|) Bool)
; yosys-smt2-anyinit caravel_wrapper#0 32 caravel_wrapper.v:45.5-56.8
; yosys-smt2-witness {"offset": 0, "path": ["\\_witness_", "\\anyinit_auto_ff_cc_337_slice_58"], "smtname": 0, "smtoffset": 0, "type": "init", "width": 32}
(declare-fun |caravel_wrapper#0| (|caravel_wrapper_s|) (_ BitVec 32)) ; \_witness_.anyinit_auto_ff_cc_337_slice_58
; yosys-smt2-register _witness_.anyinit_auto_ff_cc_337_slice_58 32
; yosys-smt2-wire _witness_.anyinit_auto_ff_cc_337_slice_58 32
(define-fun |caravel_wrapper_n _witness_.anyinit_auto_ff_cc_337_slice_58| ((state |caravel_wrapper_s|)) (_ BitVec 32) (|caravel_wrapper#0| state))
; yosys-smt2-anyinit caravel_wrapper#1 32 caravel_wrapper.v:59.5-82.8
; yosys-smt2-witness {"offset": 0, "path": ["\\_witness_", "\\anyinit_auto_ff_cc_337_slice_59"], "smtname": 1, "smtoffset": 0, "type": "init", "width": 32}
(declare-fun |caravel_wrapper#1| (|caravel_wrapper_s|) (_ BitVec 32)) ; \_witness_.anyinit_auto_ff_cc_337_slice_59
; yosys-smt2-register _witness_.anyinit_auto_ff_cc_337_slice_59 32
; yosys-smt2-wire _witness_.anyinit_auto_ff_cc_337_slice_59 32
(define-fun |caravel_wrapper_n _witness_.anyinit_auto_ff_cc_337_slice_59| ((state |caravel_wrapper_s|)) (_ BitVec 32) (|caravel_wrapper#1| state))
; yosys-smt2-anyinit caravel_wrapper#2 32 caravel_wrapper.v:59.5-82.8
; yosys-smt2-witness {"offset": 0, "path": ["\\_witness_", "\\anyinit_auto_ff_cc_337_slice_65"], "smtname": 2, "smtoffset": 0, "type": "init", "width": 32}
(declare-fun |caravel_wrapper#2| (|caravel_wrapper_s|) (_ BitVec 32)) ; \_witness_.anyinit_auto_ff_cc_337_slice_65
; yosys-smt2-register _witness_.anyinit_auto_ff_cc_337_slice_65 32
; yosys-smt2-wire _witness_.anyinit_auto_ff_cc_337_slice_65 32
(define-fun |caravel_wrapper_n _witness_.anyinit_auto_ff_cc_337_slice_65| ((state |caravel_wrapper_s|)) (_ BitVec 32) (|caravel_wrapper#2| state))
; yosys-smt2-anyinit caravel_wrapper#3 1 caravel_wrapper.v:59.5-82.8
; yosys-smt2-witness {"offset": 0, "path": ["\\_witness_", "\\anyinit_procdff_37"], "smtname": 3, "smtoffset": 0, "type": "init", "width": 1}
(declare-fun |caravel_wrapper#3| (|caravel_wrapper_s|) (_ BitVec 1)) ; \_witness_.anyinit_procdff_37
; yosys-smt2-register _witness_.anyinit_procdff_37 1
; yosys-smt2-wire _witness_.anyinit_procdff_37 1
(define-fun |caravel_wrapper_n _witness_.anyinit_procdff_37| ((state |caravel_wrapper_s|)) Bool (= ((_ extract 0 0) (|caravel_wrapper#3| state)) #b1))
; yosys-smt2-anyinit caravel_wrapper#4 1 caravel_wrapper.v:59.5-82.8
; yosys-smt2-witness {"offset": 0, "path": ["\\_witness_", "\\anyinit_procdff_47"], "smtname": 4, "smtoffset": 0, "type": "init", "width": 1}
(declare-fun |caravel_wrapper#4| (|caravel_wrapper_s|) (_ BitVec 1)) ; \_witness_.anyinit_procdff_47
; yosys-smt2-register _witness_.anyinit_procdff_47 1
; yosys-smt2-wire _witness_.anyinit_procdff_47 1
(define-fun |caravel_wrapper_n _witness_.anyinit_procdff_47| ((state |caravel_wrapper_s|)) Bool (= ((_ extract 0 0) (|caravel_wrapper#4| state)) #b1))
; yosys-smt2-anyinit caravel_wrapper#5 1 caravel_wrapper.v:45.5-56.8
; yosys-smt2-witness {"offset": 0, "path": ["\\_witness_", "\\anyinit_procdff_57"], "smtname": 5, "smtoffset": 0, "type": "init", "width": 1}
(declare-fun |caravel_wrapper#5| (|caravel_wrapper_s|) (_ BitVec 1)) ; \_witness_.anyinit_procdff_57
; yosys-smt2-register _witness_.anyinit_procdff_57 1
; yosys-smt2-wire _witness_.anyinit_procdff_57 1
(define-fun |caravel_wrapper_n _witness_.anyinit_procdff_57| ((state |caravel_wrapper_s|)) Bool (= ((_ extract 0 0) (|caravel_wrapper#5| state)) #b1))
(declare-fun |caravel_wrapper#6| (|caravel_wrapper_s|) (_ BitVec 1)) ; \rst_ni
(define-fun |caravel_wrapper#7| ((state |caravel_wrapper_s|)) (_ BitVec 32) (ite (= ((_ extract 0 0) (|caravel_wrapper#6| state)) #b1) (|caravel_wrapper#0| state) #b00000000000000000000000000000000)) ; \bridge_data
; yosys-smt2-wire bridge_data 32
(define-fun |caravel_wrapper_n bridge_data| ((state |caravel_wrapper_s|)) (_ BitVec 32) (|caravel_wrapper#7| state))
(define-fun |caravel_wrapper#8| ((state |caravel_wrapper_s|)) (_ BitVec 1) (ite (= ((_ extract 0 0) (|caravel_wrapper#6| state)) #b1) (|caravel_wrapper#5| state) #b0)) ; \bridge_valid
; yosys-smt2-wire bridge_valid 1
(define-fun |caravel_wrapper_n bridge_valid| ((state |caravel_wrapper_s|)) Bool (= ((_ extract 0 0) (|caravel_wrapper#8| state)) #b1))
(declare-fun |caravel_wrapper#9| (|caravel_wrapper_s|) Bool) ; \clk_i
; yosys-smt2-input clk_i 1
; yosys-smt2-wire clk_i 1
; yosys-smt2-clock clk_i posedge
; yosys-smt2-witness {"offset": 0, "path": ["\\clk_i"], "smtname": "clk_i", "smtoffset": 0, "type": "posedge", "width": 1}
; yosys-smt2-witness {"offset": 0, "path": ["\\clk_i"], "smtname": "clk_i", "smtoffset": 0, "type": "input", "width": 1}
(define-fun |caravel_wrapper_n clk_i| ((state |caravel_wrapper_s|)) Bool (|caravel_wrapper#9| state))
(declare-fun |caravel_wrapper#10| (|caravel_wrapper_s|) (_ BitVec 38)) ; \io_in_i
; yosys-smt2-input io_in_i 38
; yosys-smt2-wire io_in_i 38
; yosys-smt2-witness {"offset": 0, "path": ["\\io_in_i"], "smtname": "io_in_i", "smtoffset": 0, "type": "input", "width": 38}
(define-fun |caravel_wrapper_n io_in_i| ((state |caravel_wrapper_s|)) (_ BitVec 38) (|caravel_wrapper#10| state))
(define-fun |caravel_wrapper#11| ((state |caravel_wrapper_s|)) (_ BitVec 1) (ite (= ((_ extract 0 0) (|caravel_wrapper#6| state)) #b1) (|caravel_wrapper#4| state) #b0)) ; \irq_caravel_o
; yosys-smt2-output irq_caravel_o 1
; yosys-smt2-wire irq_caravel_o 1
(define-fun |caravel_wrapper_n irq_caravel_o| ((state |caravel_wrapper_s|)) Bool (= ((_ extract 0 0) (|caravel_wrapper#11| state)) #b1))
(declare-fun |caravel_wrapper#12| (|caravel_wrapper_s|) (_ BitVec 128)) ; \la_data_in_i
; yosys-smt2-input la_data_in_i 128
; yosys-smt2-wire la_data_in_i 128
; yosys-smt2-witness {"offset": 0, "path": ["\\la_data_in_i"], "smtname": "la_data_in_i", "smtoffset": 0, "type": "input", "width": 128}
(define-fun |caravel_wrapper_n la_data_in_i| ((state |caravel_wrapper_s|)) (_ BitVec 128) (|caravel_wrapper#12| state))
(define-fun |caravel_wrapper#13| ((state |caravel_wrapper_s|)) (_ BitVec 32) (ite (= ((_ extract 0 0) (|caravel_wrapper#6| state)) #b1) (|caravel_wrapper#1| state) #b00000000000000000000000000000000)) ; \la_data_out_o [31:0]
; yosys-smt2-output la_data_out_o 128
; yosys-smt2-wire la_data_out_o 128
(define-fun |caravel_wrapper_n la_data_out_o| ((state |caravel_wrapper_s|)) (_ BitVec 128) (concat #b000000000000000000000000000000000000000000000000000000000000000000000000000000000000000000000000 (|caravel_wrapper#13| state)))
(declare-fun |caravel_wrapper#14| (|caravel_wrapper_s|) (_ BitVec 128)) ; \la_oenb_i
; yosys-smt2-input la_oenb_i 128
; yosys-smt2-wire la_oenb_i 128
; yosys-smt2-witness {"offset": 0, "path": ["\\la_oenb_i"], "smtname": "la_oenb_i", "smtoffset": 0, "type": "input", "width": 128}
(define-fun |caravel_wrapper_n la_oenb_i| ((state |caravel_wrapper_s|)) (_ BitVec 128) (|caravel_wrapper#14| state))
(declare-fun |caravel_wrapper#15| (|caravel_wrapper_s|) Bool) ; \ready_i
; yosys-smt2-input ready_i 1
; yosys-smt2-wire ready_i 1
; yosys-smt2-witness {"offset": 0, "path": ["\\ready_i"], "smtname": "ready_i", "smtoffset": 0, "type": "input", "width": 1}
(define-fun |caravel_wrapper_n ready_i| ((state |caravel_wrapper_s|)) Bool (|caravel_wrapper#15| state))
; yosys-smt2-input rst_ni 1
; yosys-smt2-wire rst_ni 1
; yosys-smt2-witness {"offset": 0, "path": ["\\rst_ni"], "smtname": "rst_ni", "smtoffset": 0, "type": "input", "width": 1}
(define-fun |caravel_wrapper_n rst_ni| ((state |caravel_wrapper_s|)) Bool (= ((_ extract 0 0) (|caravel_wrapper#6| state)) #b1))
(define-fun |caravel_wrapper#16| ((state |caravel_wrapper_s|)) (_ BitVec 1) (ite (= ((_ extract 0 0) (|caravel_wrapper#6| state)) #b1) (|caravel_wrapper#3| state) #b0)) ; \wb_ack_o
; yosys-smt2-output wb_ack_o 1
; yosys-smt2-wire wb_ack_o 1
(define-fun |caravel_wrapper_n wb_ack_o| ((state |caravel_wrapper_s|)) Bool (= ((_ extract 0 0) (|caravel_wrapper#16| state)) #b1))
(declare-fun |caravel_wrapper#17| (|caravel_wrapper_s|) (_ BitVec 32)) ; \wb_adr_i
; yosys-smt2-input wb_adr_i 32
; yosys-smt2-wire wb_adr_i 32
; yosys-smt2-witness {"offset": 0, "path": ["\\wb_adr_i"], "smtname": "wb_adr_i", "smtoffset": 0, "type": "input", "width": 32}
(define-fun |caravel_wrapper_n wb_adr_i| ((state |caravel_wrapper_s|)) (_ BitVec 32) (|caravel_wrapper#17| state))
(declare-fun |caravel_wrapper#18| (|caravel_wrapper_s|) Bool) ; \wb_cyc_i
; yosys-smt2-input wb_cyc_i 1
; yosys-smt2-wire wb_cyc_i 1
; yosys-smt2-witness {"offset": 0, "path": ["\\wb_cyc_i"], "smtname": "wb_cyc_i", "smtoffset": 0, "type": "input", "width": 1}
(define-fun |caravel_wrapper_n wb_cyc_i| ((state |caravel_wrapper_s|)) Bool (|caravel_wrapper#18| state))
(declare-fun |caravel_wrapper#19| (|caravel_wrapper_s|) (_ BitVec 32)) ; \wb_dat_i
; yosys-smt2-input wb_dat_i 32
; yosys-smt2-wire wb_dat_i 32
; yosys-smt2-witness {"offset": 0, "path": ["\\wb_dat_i"], "smtname": "wb_dat_i", "smtoffset": 0, "type": "input", "width": 32}
(define-fun |caravel_wrapper_n wb_dat_i| ((state |caravel_wrapper_s|)) (_ BitVec 32) (|caravel_wrapper#19| state))
(define-fun |caravel_wrapper#20| ((state |caravel_wrapper_s|)) (_ BitVec 32) (ite (= ((_ extract 0 0) (|caravel_wrapper#6| state)) #b1) (|caravel_wrapper#2| state) #b00000000000000000000000000000000)) ; \wb_dat_o
; yosys-smt2-output wb_dat_o 32
; yosys-smt2-wire wb_dat_o 32
(define-fun |caravel_wrapper_n wb_dat_o| ((state |caravel_wrapper_s|)) (_ BitVec 32) (|caravel_wrapper#20| state))
(declare-fun |caravel_wrapper#21| (|caravel_wrapper_s|) (_ BitVec 4)) ; \wb_sel_i
; yosys-smt2-input wb_sel_i 4
; yosys-smt2-wire wb_sel_i 4
; yosys-smt2-witness {"offset": 0, "path": ["\\wb_sel_i"], "smtname": "wb_sel_i", "smtoffset": 0, "type": "input", "width": 4}
(define-fun |caravel_wrapper_n wb_sel_i| ((state |caravel_wrapper_s|)) (_ BitVec 4) (|caravel_wrapper#21| state))
(declare-fun |caravel_wrapper#22| (|caravel_wrapper_s|) Bool) ; \wb_stb_i
; yosys-smt2-input wb_stb_i 1
; yosys-smt2-wire wb_stb_i 1
; yosys-smt2-witness {"offset": 0, "path": ["\\wb_stb_i"], "smtname": "wb_stb_i", "smtoffset": 0, "type": "input", "width": 1}
(define-fun |caravel_wrapper_n wb_stb_i| ((state |caravel_wrapper_s|)) Bool (|caravel_wrapper#22| state))
(declare-fun |caravel_wrapper#23| (|caravel_wrapper_s|) Bool) ; \wb_we_i
; yosys-smt2-input wb_we_i 1
; yosys-smt2-wire wb_we_i 1
; yosys-smt2-witness {"offset": 0, "path": ["\\wb_we_i"], "smtname": "wb_we_i", "smtoffset": 0, "type": "input", "width": 1}
(define-fun |caravel_wrapper_n wb_we_i| ((state |caravel_wrapper_s|)) Bool (|caravel_wrapper#23| state))
(define-fun |caravel_wrapper#24| ((state |caravel_wrapper_s|)) (_ BitVec 1) (bvnot (ite (|caravel_wrapper#9| state) #b1 #b0))) ; $auto$rtlil.cc:3255:Not$103
; yosys-smt2-assume 0 $auto$formalff.cc:987:execute$104
(define-fun |caravel_wrapper_u 0| ((state |caravel_wrapper_s|)) Bool (or (= ((_ extract 0 0) (|caravel_wrapper#24| state)) #b1) (not true))) ; $auto$formalff.cc:987:execute$104
(define-fun |caravel_wrapper#25| ((state |caravel_wrapper_s|)) (_ BitVec 1) (ite (|caravel_wrapper#15| state) #b1 #b0)) ; $0\bridge_valid[0:0]
(define-fun |caravel_wrapper#26| ((state |caravel_wrapper_s|)) (_ BitVec 1) (ite (= ((_ extract 0 0) (|caravel_wrapper#6| state)) #b1) (|caravel_wrapper#25| state) #b0)) ; $auto$rtlil.cc:3390:Mux$83
(define-fun |caravel_wrapper#27| ((state |caravel_wrapper_s|)) Bool (and (or  (|caravel_wrapper#15| state) false) (or  (= ((_ extract 0 0) (|caravel_wrapper#8| state)) #b1) false))) ; $0\irq_caravel_o[0:0]
(define-fun |caravel_wrapper#28| ((state |caravel_wrapper_s|)) (_ BitVec 1) (ite (= ((_ extract 0 0) (|caravel_wrapper#6| state)) #b1) (ite (|caravel_wrapper#27| state) #b1 #b0) #b0)) ; $auto$rtlil.cc:3390:Mux$85
(define-fun |caravel_wrapper#29| ((state |caravel_wrapper_s|)) Bool (and (or  (|caravel_wrapper#18| state) false) (or  (|caravel_wrapper#22| state) false))) ; $logic_and$caravel_wrapper.v:68$6_Y
(define-fun |caravel_wrapper#30| ((state |caravel_wrapper_s|)) Bool (not (or  (= ((_ extract 0 0) (|caravel_wrapper#16| state)) #b1) false))) ; $logic_not$caravel_wrapper.v:68$7_Y
(define-fun |caravel_wrapper#31| ((state |caravel_wrapper_s|)) Bool (and (or  (|caravel_wrapper#29| state) false) (or  (|caravel_wrapper#30| state) false))) ; $logic_and$caravel_wrapper.v:68$8_Y
(define-fun |caravel_wrapper#32| ((state |caravel_wrapper_s|)) Bool (and (or  (|caravel_wrapper#31| state) false) (or  (|caravel_wrapper#15| state) false))) ; $logic_and$caravel_wrapper.v:68$9_Y
(define-fun |caravel_wrapper#33| ((state |caravel_wrapper_s|)) (_ BitVec 1) (ite (|caravel_wrapper#32| state) #b1 #b0)) ; $0\wb_ack_o[0:0]
(define-fun |caravel_wrapper#34| ((state |caravel_wrapper_s|)) (_ BitVec 1) (ite (= ((_ extract 0 0) (|caravel_wrapper#6| state)) #b1) (|caravel_wrapper#33| state) #b0)) ; $auto$rtlil.cc:3390:Mux$87
(define-fun |caravel_wrapper#35| ((state |caravel_wrapper_s|)) (_ BitVec 1) (bvnot (ite (|caravel_wrapper#23| state) #b1 #b0))) ; $auto$rtlil.cc:3255:Not$67
(define-fun |caravel_wrapper#36| ((state |caravel_wrapper_s|)) Bool (and  (= ((_ extract 0 0) (|caravel_wrapper#35| state)) #b1) (|caravel_wrapper#32| state))) ; $auto$opt_dff.cc:251:make_patterns_logic$68
(define-fun |caravel_wrapper#37| ((state |caravel_wrapper_s|)) (_ BitVec 32) (ite (|caravel_wrapper#36| state) (|caravel_wrapper#7| state) (|caravel_wrapper#2| state))) ; $auto$rtlil.cc:3390:Mux$89
(define-fun |caravel_wrapper#38| ((state |caravel_wrapper_s|)) (_ BitVec 32) (ite (= ((_ extract 0 0) (|caravel_wrapper#6| state)) #b1) (|caravel_wrapper#37| state) #b00000000000000000000000000000000)) ; $auto$rtlil.cc:3390:Mux$91
(define-fun |caravel_wrapper#39| ((state |caravel_wrapper_s|)) Bool (and  (|caravel_wrapper#23| state) (|caravel_wrapper#32| state))) ; $auto$opt_dff.cc:251:make_patterns_logic$60
(define-fun |caravel_wrapper#40| ((state |caravel_wrapper_s|)) (_ BitVec 32) (ite (|caravel_wrapper#39| state) (|caravel_wrapper#19| state) (|caravel_wrapper#1| state))) ; $auto$rtlil.cc:3390:Mux$93
(define-fun |caravel_wrapper#41| ((state |caravel_wrapper_s|)) (_ BitVec 32) (ite (= ((_ extract 0 0) (|caravel_wrapper#6| state)) #b1) (|caravel_wrapper#40| state) #b00000000000000000000000000000000)) ; $auto$rtlil.cc:3390:Mux$95
(define-fun |caravel_wrapper#42| ((state |caravel_wrapper_s|)) (_ BitVec 32) (ite (|caravel_wrapper#15| state) ((_ extract 31 0) (|caravel_wrapper#12| state)) (|caravel_wrapper#0| state))) ; $auto$rtlil.cc:3390:Mux$97
(define-fun |caravel_wrapper#43| ((state |caravel_wrapper_s|)) (_ BitVec 32) (ite (= ((_ extract 0 0) (|caravel_wrapper#6| state)) #b1) (|caravel_wrapper#42| state) #b00000000000000000000000000000000)) ; $auto$rtlil.cc:3390:Mux$99
(define-fun |caravel_wrapper_a| ((state |caravel_wrapper_s|)) Bool true)
(define-fun |caravel_wrapper_u| ((state |caravel_wrapper_s|)) Bool 
  (|caravel_wrapper_u 0| state)
)
(define-fun |caravel_wrapper_i| ((state |caravel_wrapper_s|)) Bool true)
(define-fun |caravel_wrapper_h| ((state |caravel_wrapper_s|)) Bool true)
(define-fun |caravel_wrapper_t| ((state |caravel_wrapper_s|) (next_state |caravel_wrapper_s|)) Bool (and
  (= (|caravel_wrapper#26| state) (|caravel_wrapper#5| next_state)) ; $procdff$57 \_witness_.anyinit_procdff_57
  (= (|caravel_wrapper#28| state) (|caravel_wrapper#4| next_state)) ; $procdff$47 \_witness_.anyinit_procdff_47
  (= (|caravel_wrapper#34| state) (|caravel_wrapper#3| next_state)) ; $procdff$37 \_witness_.anyinit_procdff_37
  (= (|caravel_wrapper#38| state) (|caravel_wrapper#2| next_state)) ; $auto$ff.cc:337:slice$65 \_witness_.anyinit_auto_ff_cc_337_slice_65
  (= (|caravel_wrapper#41| state) (|caravel_wrapper#1| next_state)) ; $auto$ff.cc:337:slice$59 \_witness_.anyinit_auto_ff_cc_337_slice_59
  (= (|caravel_wrapper#43| state) (|caravel_wrapper#0| next_state)) ; $auto$ff.cc:337:slice$58 \_witness_.anyinit_auto_ff_cc_337_slice_58
)) ; end of module caravel_wrapper
; yosys-smt2-topmod caravel_wrapper
; end of yosys output
